Pu2 U106
1.0
   8.5748209118390761    0.0000000000000000    0.0000000000000006
  -0.0000000000000012   17.5966571187758056    0.0000000000000012
   0.0000000000000000    0.0000000000000000   14.9383688413005409
U Pu U Pu U
10 1 2 1 94
direct
   0.0000000000000000    0.0336949844808718    0.2500000000000000 U
   0.0000000000000000    0.0336949844808718    0.5833333333333334 U
   0.0000000000000000    0.0336949844808718    0.9166666666666667 U
   0.0000000000000000    0.3670283178142051    0.2500000000000000 U
   0.0000000000000000    0.3670283178142051    0.5833333333333334 U
   0.0000000000000000    0.3670283178142051    0.9166666666666666 U
   0.0000000000000000    0.7003616511475385    0.2500000000000000 U
   0.0000000000000000    0.7003616511475385    0.5833333333333334 U
   0.0000000000000000    0.7003616511475385    0.9166666666666666 U
   0.3333333333333333    0.0336949844808718    0.2500000000000000 U
   0.3333333333333333    0.0336949844808718    0.5833333333333334 Pu
   0.3333333333333333    0.0336949844808718    0.9166666666666666 U
   0.3333333333333333    0.3670283178142051    0.2500000000000000 U
   0.3333333333333333    0.3670283178142051    0.5833333333333334 Pu
   0.3333333333333333    0.3670283178142051    0.9166666666666666 U
   0.3333333333333333    0.7003616511475385    0.2500000000000000 U
   0.3333333333333333    0.7003616511475385    0.5833333333333333 U
   0.3333333333333333    0.7003616511475385    0.9166666666666666 U
   0.6666666666666666    0.0336949844808718    0.2500000000000000 U
   0.6666666666666666    0.0336949844808718    0.5833333333333334 U
   0.6666666666666666    0.0336949844808718    0.9166666666666666 U
   0.6666666666666666    0.3670283178142051    0.2500000000000000 U
   0.6666666666666666    0.3670283178142051    0.5833333333333334 U
   0.6666666666666666    0.3670283178142051    0.9166666666666666 U
   0.6666666666666666    0.7003616511475385    0.2500000000000000 U
   0.6666666666666666    0.7003616511475385    0.5833333333333333 U
   0.6666666666666666    0.7003616511475385    0.9166666666666666 U
   0.1666666666666667    0.1329716821857949    0.0833333333333333 U
   0.1666666666666667    0.1329716821857949    0.4166666666666666 U
   0.1666666666666667    0.1329716821857949    0.7500000000000000 U
   0.1666666666666666    0.4663050155191282    0.0833333333333333 U
   0.1666666666666666    0.4663050155191282    0.4166666666666666 U
   0.1666666666666666    0.4663050155191282    0.7500000000000000 U
   0.1666666666666666    0.7996383488524615    0.0833333333333333 U
   0.1666666666666666    0.7996383488524615    0.4166666666666666 U
   0.1666666666666666    0.7996383488524615    0.7500000000000000 U
   0.4999999999999999    0.1329716821857949    0.0833333333333333 U
   0.4999999999999999    0.1329716821857949    0.4166666666666666 U
   0.4999999999999999    0.1329716821857949    0.7500000000000000 U
   0.4999999999999999    0.4663050155191282    0.0833333333333333 U
   0.4999999999999999    0.4663050155191282    0.4166666666666666 U
   0.4999999999999999    0.4663050155191282    0.7500000000000000 U
   0.4999999999999999    0.7996383488524615    0.0833333333333333 U
   0.4999999999999999    0.7996383488524615    0.4166666666666666 U
   0.4999999999999999    0.7996383488524615    0.7500000000000000 U
   0.8333333333333331    0.1329716821857949    0.0833333333333333 U
   0.8333333333333331    0.1329716821857949    0.4166666666666666 U
   0.8333333333333331    0.1329716821857949    0.7500000000000000 U
   0.8333333333333333    0.4663050155191282    0.0833333333333333 U
   0.8333333333333333    0.4663050155191282    0.4166666666666666 U
   0.8333333333333333    0.4663050155191282    0.7500000000000000 U
   0.8333333333333331    0.7996383488524615    0.0833333333333333 U
   0.8333333333333331    0.7996383488524615    0.4166666666666666 U
   0.8333333333333331    0.7996383488524615    0.7499999999999999 U
   0.1666666666666667    0.2003616511475385    0.2500000000000000 U
   0.1666666666666667    0.2003616511475385    0.5833333333333334 U
   0.1666666666666667    0.2003616511475385    0.9166666666666666 U
   0.1666666666666667    0.5336949844808719    0.2500000000000000 U
   0.1666666666666667    0.5336949844808719    0.5833333333333334 U
   0.1666666666666667    0.5336949844808719    0.9166666666666666 U
   0.1666666666666666    0.8670283178142052    0.2500000000000000 U
   0.1666666666666666    0.8670283178142052    0.5833333333333333 U
   0.1666666666666666    0.8670283178142052    0.9166666666666666 U
   0.4999999999999999    0.2003616511475385    0.2500000000000000 U
   0.4999999999999999    0.2003616511475385    0.5833333333333334 U
   0.4999999999999999    0.2003616511475385    0.9166666666666666 U
   0.4999999999999999    0.5336949844808719    0.2500000000000000 U
   0.4999999999999999    0.5336949844808719    0.5833333333333333 U
   0.4999999999999999    0.5336949844808719    0.9166666666666666 U
   0.4999999999999999    0.8670283178142052    0.2500000000000000 U
   0.4999999999999999    0.8670283178142052    0.5833333333333333 U
   0.4999999999999999    0.8670283178142052    0.9166666666666666 U
   0.8333333333333331    0.2003616511475385    0.2500000000000000 U
   0.8333333333333331    0.2003616511475385    0.5833333333333334 U
   0.8333333333333331    0.2003616511475385    0.9166666666666666 U
   0.8333333333333333    0.5336949844808719    0.2500000000000000 U
   0.8333333333333333    0.5336949844808719    0.5833333333333333 U
   0.8333333333333333    0.5336949844808719    0.9166666666666666 U
   0.8333333333333331    0.8670283178142052    0.2500000000000000 U
   0.8333333333333331    0.8670283178142052    0.5833333333333333 U
   0.8333333333333331    0.8670283178142052    0.9166666666666666 U
   0.0000000000000000    0.2996383488524615    0.0833333333333333 U
   0.0000000000000000    0.2996383488524615    0.4166666666666667 U
   0.0000000000000000    0.2996383488524615    0.7500000000000000 U
   0.0000000000000000    0.6329716821857949    0.0833333333333333 U
   0.0000000000000000    0.6329716821857949    0.4166666666666667 U
   0.0000000000000000    0.6329716821857949    0.7500000000000000 U
   0.0000000000000000    0.9663050155191282    0.0833333333333333 U
   0.0000000000000000    0.9663050155191282    0.4166666666666666 U
   0.0000000000000000    0.9663050155191282    0.7500000000000000 U
   0.3333333333333333    0.2996383488524615    0.0833333333333333 U
   0.3333333333333333    0.2996383488524615    0.4166666666666667 U
   0.3333333333333333    0.2996383488524615    0.7500000000000000 U
   0.3333333333333333    0.6329716821857949    0.0833333333333333 U
   0.3333333333333333    0.6329716821857949    0.4166666666666666 U
   0.3333333333333333    0.6329716821857949    0.7500000000000000 U
   0.3333333333333333    0.9663050155191282    0.0833333333333333 U
   0.3333333333333333    0.9663050155191282    0.4166666666666666 U
   0.3333333333333333    0.9663050155191282    0.7500000000000000 U
   0.6666666666666666    0.2996383488524615    0.0833333333333333 U
   0.6666666666666666    0.2996383488524615    0.4166666666666667 U
   0.6666666666666666    0.2996383488524615    0.7500000000000000 U
   0.6666666666666667    0.6329716821857949    0.0833333333333333 U
   0.6666666666666667    0.6329716821857949    0.4166666666666666 U
   0.6666666666666667    0.6329716821857949    0.7500000000000000 U
   0.6666666666666666    0.9663050155191282    0.0833333333333333 U
   0.6666666666666666    0.9663050155191282    0.4166666666666666 U
   0.6666666666666666    0.9663050155191282    0.7499999999999999 U
